
  17    4
  10   10   10   10

   0   0   0   0   0   5 2 3 4 5 6 
   9  10  10  10  10   4 16 10 9 7 
   5  10  10  10  10   4 16 10 8 7 
   9  10  10  10  10   4 16 12 11 9 
   6  10  10  10  10   3 16 12 10 
   1  10  10  10  10   4 15 14 12 11 
   1  10  10  10  10   3 14 12 11 
   2  10  10  10  10   3 15 12 11 
   9  10  10  10  10   3 15 14 13 
   7  10  10  10  10   2 14 11 
   8  10  10  10  10   1 13 
   2  10  10  10  10   1 13 
   2  10  10  10  10   1 17
   6  10  10  10  10   1 17
   8  10  10  10  10   1 17
   1  10  10  10  10   1 17
   0   0   0   0   0   0 
